50
3238 6201 85 9829 8222 9991 2634 1995 548 1939 242 6918 3657 8156 7607 3494 1668 3477 303 6484 1898 1488 8885 4371 9461 9803 6640 2498 1478 2466 7367 5119 2980 175 3511 3928 694 2495 2955 4160 4940 5657 8496 2950 949 3032 2161 5757 4763 3211 
3238 6201 85 9829 8222 9991 2634 1995 548 1939 242 6918 3657 8156 7607 3494 1668 3477 303 6484 1898 1488 8885 4371 9461 9803 6640 2498 1478 2466 7367 5119 2980 175 3511 3928 694 2495 2955 4160 4940 5657 8496 2950 949 3032 2161 5757 4763 3211 
104443
